60 30
0 0 5 11
5 0 4 11
9 0 19 10
28 0 7 10
35 0 9 9
44 0 16 9
35 9 5 8
9 10 25 7
40 9 13 7
40 16 12 7
53 9 7 7
0 11 5 7
9 17 24 6
9 23 11 6
20 23 10 6
52 16 5 6
40 23 18 6
5 11 2 4
7 11 2 4
34 10 1 4
35 17 5 3
0 18 6 3
34 14 1 2
0 21 7 2
5 15 4 1
